c --- [ banner ] -------------------------------------------------------------
c 
c CaDiCaL Radically Simplified CDCL SAT Solver
c Copyright (c) 2016-2021 A. Biere, M. Fleury, N. Froleyks
c 
c Version 1.5.2 a5f15211db36c3956764e18194dd5bd63bf3b5e6
c g++ (GCC) 9.3.0 -Wall -Wextra -O3 -DNDEBUG
c Fri Oct 21 01:27:37 EDT 2022 Linux gra-login3 3.10.0-1160.66.1.el7.x86_64 x86_64
c 
c --- [ limit ] --------------------------------------------------------------
c 
c setting conflict limit to 200000 conflicts (due to '200000')
c 
c --- [ parsing input ] ------------------------------------------------------
c 
c reading DIMACS file from '33.cubes1022.adj'
c opening file to read '33.cubes1022.adj'
c found 'p cnf 6160 1595470' header
c parsed 1595470 clauses in 19.68 seconds process time
c closing file '33.cubes1022.adj'
c after reading 1457566740 bytes 1390.0 MB
c 
c --- [ options ] ------------------------------------------------------------
c 
c all options are set to their default value
c 
c --- [ solving ] ------------------------------------------------------------
c 
c time measured in process time since initialization
c 
c  seconds    reductions  redundant   irredundant
c          MB     restarts       trail       variables
c            level   conflicts       glue         remaining
c 
c * 19.68 1372  0 0   0    0    0  0% 0 1595422 2335 38%
c { 20.52 1412  0 0   0    0    0  0% 0 1595422 2335 38%
c i 21.45 1449 591 0   0   15   13 30% 2 1595422 2334 38%
c i 23.33 1476 171 0   6   92   67 29% 11 1595422 2333 38%
c i 23.33 1476 164 0   6   96   70 29% 11 1595422 2332 38%
c i 23.34 1476 161 0   6   98   71 29% 11 1595422 2331 38%
c i 23.36 1476 155 0   6  102   73 29% 11 1595422 2330 38%
c i 23.44 1476 140 0   6  114   82 29% 11 1595422 2329 38%
c i 23.50 1476 129 0   6  124   90 29% 11 1595422 2328 38%
c i 23.50 1476 126 0   6  127   92 29% 11 1595422 2327 38%
c i 23.65 1477 123 0   6  131   95 29% 11 1595422 2326 38%
c i 23.74 1477 116 0   8  142  104 29% 12 1595422 2325 38%
c i 24.30 1483 118 0  14  172  130 28% 19 1595422 2314 38%
c i 24.71 1484 120 0  20  193  150 28% 23 1595422 2308 37%
c i 24.77 1484 120 0  20  201  154 28% 23 1595422 2307 37%
c i 24.83 1486 120 0  21  207  159 28% 22 1595422 2303 37%
c i 25.31 1491 118 0  30  241  187 27% 21 1595422 2288 37%
c i 25.33 1491 118 0  30  243  188 27% 21 1595422 2287 37%
c i 25.40 1491 116 0  33  254  198 27% 22 1595422 2286 37%
c i 25.44 1491 116 0  34  260  203 27% 22 1595422 2285 37%
c 
c  seconds     reductions  redundant    irredundant
c          MB      restarts       trail        variables
c             level   conflicts       glue          remaining
c 
c i 25.47 1491 116 0  35  263  205 27% 22 1595422 2284 37%
c i 25.53 1491 115 0  37  273  213 27% 22 1595422 2283 37%
c i 25.53 1491 115 0  37  274  213 27% 22 1595422 2282 37%
c i 25.54 1491 114 0  38  276  214 27% 22 1595422 2281 37%
c i 25.57 1491 114 0  39  280  217 27% 22 1595422 2280 37%
c - 29.65 1397 113 1  44  300  235 27% 23 226221 2280 37%
c i 29.88 1363 110 1  49  333  263 27% 24 226221 2279 37%
c i 30.04 1363 92 1  55  413  294 26% 22 226221 2278 37%
c i 30.05 1363 92 1  55  416  296 26% 22 226221 2277 37%
c i 30.07 1363 91 1  55  419  298 26% 22 226221 2276 37%
c i 30.15 1363 90 1  55  439  314 26% 22 226221 2275 37%
c i 30.20 1363 90 1  55  444  316 26% 22 226221 2274 37%
c i 30.25 1363 89 1  55  458  328 26% 22 226221 2266 37%
c i 30.25 1363 88 1  55  460  329 26% 22 226221 2265 37%
c i 30.27 1363 88 1  55  463  331 26% 22 226221 2264 37%
c i 30.39 1363 77 1  56  551  392 26% 20 226221 2263 37%
c i 30.48 1363 75 1  56  573  409 26% 20 226221 2262 37%
c i 30.49 1363 74 1  56  582  414 26% 20 226221 2261 37%
c i 30.49 1363 74 1  56  585  416 26% 20 226221 2260 37%
c i 30.51 1363 74 1  56  596  425 26% 20 226221 2259 37%
c 
c  seconds    reductions  redundant   irredundant
c          MB     restarts       trail       variables
c            level   conflicts       glue         remaining
c 
c i 30.58 1363 73 1  59  611  436 26% 20 226221 2257 37%
c i 30.58 1363 73 1  59  612  436 26% 20 226221 2256 37%
c i 30.64 1363 72 1  60  628  447 26% 20 226221 2255 37%
c i 30.70 1363 72 1  63  644  455 26% 21 226221 2254 37%
c i 30.83 1363 71 1  70  678  482 26% 21 226221 2253 37%
c i 30.98 1363 70 1  77  706  504 27% 21 226221 2252 37%
c i 30.98 1363 69 1  78  709  506 27% 21 226221 2251 37%
c i 30.98 1363 69 1  78  710  506 27% 21 226221 2250 37%
c i 31.16 1363 68 1  81  752  529 27% 21 226221 2249 37%
c i 31.18 1363 68 1  81  758  534 27% 21 226221 2248 36%
c i 31.20 1363 68 1  81  759  534 27% 21 226221 2247 36%
c i 31.21 1363 67 1  81  764  538 27% 21 226221 2246 36%
c i 31.21 1363 67 1  81  765  538 27% 21 226221 2245 36%
c i 31.23 1363 67 1  81  779  549 27% 21 226221 2244 36%
c i 31.25 1363 67 1  81  780  549 27% 21 226221 2243 36%
c i 31.30 1363 66 1  81  801  563 27% 21 226221 2242 36%
c i 31.49 1363 60 1  81  937  682 27% 21 226221 2241 36%
c i 31.73 1363 60 1  91  981  721 27% 21 226221 2240 36%
c } 31.80 1363 59 1  91 1001  739 27% 21 226221 2240 36%
c [ 31.80 1363  0 1  91 1001  739  0% 0 226221 2240 36%
c 
c  seconds    reductions  redundant  irredundant
c          MB     restarts       trail      variables
c            level   conflicts       glue        remaining
c 
c O 31.80 1363  1 1  91 1002  740 13% 1 226221 2240 36%
c i 31.92 1363 16 1  91 1029  763 32% 11 226221 2239 36%
c i 31.96 1363 18 1  91 1083  792 32% 14 226221 2238 36%
c - 32.39 1445 18 2  91 1112  715 32% 14 225954 2238 36%
c i 32.55 1445 19 2  91 1319  846 32% 16 225954 2237 36%
c i 32.58 1445 18 2  91 1394  887 32% 15 225954 2236 36%
c ] 32.67 1445 17 2  91 1777 1085 32% 15 225954 2236 36%
c 1 32.67 1445 17 2  91 1777 1085 32% 15 225954 2236 36%
c 
c --- [ writing output ] -----------------------------------------------------
c 
c writing simplified CNF to DIMACS file 'simp/33.cubes1022.adj.simp1'
c * 32.67 1445 17 2  91 1777 1085 32% 15 225954 2236 36%
c opening file to write 'simp/33.cubes1022.adj.simp1'
c writing 'p cnf 6160 225948' header
c closing file 'simp/33.cubes1022.adj.simp1'
c after writing 92772827 bytes 88.5 MB
c wrote 225948 clauses in 0.73 seconds process time
c 
c --- [ writing extension ] --------------------------------------------------
c 
c writing extension stack to 'simp/33.cubes1022.adj.ext1'
c opening file to write 'simp/33.cubes1022.adj.ext1'
c closing file 'simp/33.cubes1022.adj.ext1'
c after writing 11598 bytes 0.0 MB
c wrote 780 witnesses in 0.00 seconds process time
c 
c --- [ result ] -------------------------------------------------------------
c 
s SATISFIABLE
c 
c --- [ run-time profiling ] -------------------------------------------------
c 
c process time taken by individual solving procedures
c (percentage relative to process time for solving)
c 
c        19.68  151.49% parse
c        12.99  100.00% search
c        11.28   86.80% unstable
c         0.88    6.74% stable
c         0.84    6.46% lucky
c         0.00    0.00% simplify
c   =================================
c        12.99   38.89% solve
c 
c last line shows process time for solving
c (percentage relative to total process time)
c 
c --- [ statistics ] ---------------------------------------------------------
c 
c chronological:               501        28.19 %  of conflicts
c conflicts:                  1777       136.79    per second
c decisions:                 17779      1368.54    per second
c fixed:                       780        12.66 %  of all variables
c learned:                    1740        97.92 %  per conflict
c learned_lits:             237916       100.00 %  learned literals
c minimized:                     0         0.00 %  learned literals
c shrunken:                 176518        74.19 %  learned literals
c minishrunken:               8844         3.72 %  learned literals
c propagations:             283959         0.02 M  per second
c reduced:                      93         5.23 %  per conflict
c rephased:                      1      1777.00    interval
c restarts:                     91        19.53    interval
c stabilizing:                   1        43.67 %  of conflicts
c subsumed:                    499         0.02 %  of all clauses
c 
c seconds are measured in process time for solving
c 
c --- [ resources ] ----------------------------------------------------------
c 
c total process time since initialization:        33.40    seconds
c total real time since initialization:           33.97    seconds
c maximum resident set size of process:         1491.25    MB
c 
c --- [ shutting down ] ------------------------------------------------------
c 
c exit 10
WARNING! DIMACS header mismatch: wrong number of variables.
============================[ Problem Statistics ]=============================
|                                                                             |
|  Number of variables:          6120                                         |
|  Number of clauses:          225948                                         |
|  Parse time:                   1.23 s                                       |
|  Simplification time:          0.02 s                                       |
|                                                                             |
============================[ Search Statistics ]====================================================
| Conflicts |          ORIGINAL         |          LEARNT          | Num Sols |      SUBGRAPHS      |
|           |    Vars  Clauses Literals |    Limit  Clauses Lit/Cl |          | Canonical Noncanon. |
=====================================================================================================
|       102 |    5999   225950 20231220 |     2000       99     76 |        0 |        22         2 |
|       255 |    5998   225953 20231437 |     2000      251     88 |        0 |        32         5 |
|       483 |    5996   225956 20231690 |     2000      477     96 |        0 |        46         8 |
|       822 |    5992   225958 20231765 |     2000      812     95 |        0 |        65        10 |
|      1352 |    5988   225982 20232368 |     2000     1338     96 |        0 |        93        34 |
|      2130 |    5984   226001 20233179 |     3591     1121     57 |        0 |        99        53 |
|      3604 |    5979   226336 20239733 |     3591     2590     60 |        0 |       221       388 |
|     11440 |    5979   232464 20330456 |     6297     6137     14 |        0 |      1627      6516 |
|     14460 |    5978   232922 20341333 |     7557     6016     42 |        0 |      1816      6974 |
|     23789 |    5977   238407 20437726 |     9995     7183     34 |        0 |      2920     12459 |
|     31700 |    5977   240552 20474567 |    11203    10103     40 |        0 |      3349     14604 |
|     46769 |    5977   246972 20574116 |    13609    13378     31 |        0 |      4499     21024 |
|     67438 |    5977   254667 20696757 |    17217    11855     24 |        0 |      6506     28719 |
|     93390 |    5977   261158 20812181 |    20819    10209     15 |        0 |      8240     35210 |
|    146283 |    5977   284859 21155693 |    25617    17900     27 |        0 |     11202     58911 |
|    219390 |    5976   228390 13267564 |    31619    21009     29 |        0 |     15204     88229 |
=====================================================================================================
Number of solutions   : 0
Canonical subgraphs   : 17878          (64 /sec)
          order  3    : 1              (142857 /sec)
          order  4    : 1              (500000 /sec)
          order  5    : 1              (250000 /sec)
          order  6    : 1              (58824 /sec)
          order  7    : 2              (10417 /sec)
          order  8    : 4              (2058 /sec)
          order  9    : 12             (534 /sec)
          order 10    : 56             (168 /sec)
          order 11    : 314            (86 /sec)
          order 12    : 1783           (97 /sec)
          order 13    : 9272           (90 /sec)
          order 14    : 2879           (54 /sec)
          order 15    : 1913           (41 /sec)
          order 16    : 911            (32 /sec)
          order 17    : 480            (27 /sec)
          order 18    : 155            (28 /sec)
          order 19    : 63             (27 /sec)
          order 20    : 18             (30 /sec)
          order 21    : 12             (30 /sec)
          order 22    : 0              (-nan /sec)
Noncanonical subgraphs: 118093         (569 /sec)
          order  3    : 0              (-nan /sec)
          order  4    : 0              (-nan /sec)
          order  5    : 0              (-nan /sec)
          order  6    : 0              (-nan /sec)
          order  7    : 0              (-nan /sec)
          order  8    : 0              (-nan /sec)
          order  9    : 0              (-nan /sec)
          order 10    : 0              (-nan /sec)
          order 11    : 0              (-nan /sec)
          order 12    : 0              (-nan /sec)
          order 13    : 20660          (3421 /sec)
          order 14    : 88750          (508 /sec)
          order 15    : 6885           (409 /sec)
          order 16    : 1299           (266 /sec)
          order 17    : 487            (103 /sec)
          order 18    : 0              (-nan /sec)
          order 19    : 0              (-nan /sec)
          order 20    : 0              (-nan /sec)
          order 21    : 0              (-nan /sec)
Canonicity checking   : 281.135 s
Noncanonicity checking: 207.534 s
Total canonicity time : 488.669 s
database reductions   : 28
restarts              : 671
conflicts             : 283717         (475 /sec)
decisions             : 494864         (0.00 % random) (828 /sec)
propagations          : 33282160       (55694 /sec)
conflict literals     : 16065553       (53.24 % deleted)
actual reward         : 0.087217
Memory used           : 279.00 MB
CPU time              : 597.593 s

UNSATISFIABLE
